4
25
63
40	31
1	2	14	5	6	5	
2	3	14	4	7	3	24	4	
3	4	18	3	8	14	15	3	15	4	
4	1	18	4	
5	2	10	4	5	8	
6	1	22	2	
7	1	17	3	
8	1	6	14	
9	1	24	3	
10	1	24	3	
11	3	17	2	4	12	4	13	
12	3	7	4	13	8	29	3	
13	3	31	3	5	7	31	3	
14	3	5	2	17	3	9	5	
15	4	7	3	28	4	22	3	24	3	
16	3	21	4	18	3	5	7	
17	3	9	5	24	4	5	7	
18	4	22	2	28	3	6	2	11	6	
19	3	10	3	30	3	27	3	
20	2	16	5	13	3	
21	4	28	2	20	3	27	4	14	4	
22	3	10	6	10	7	14	4	
23	3	29	3	9	7	5	2	
24	1	7	12	
25	4	21	4	7	13	23	3	23	2	
